
Log started (V11.0.0) Wed May 14 17:26:37 2008

Tried aggregator 1 time.
Reduced MIP has 150 rows, 5001 columns, and 10050 nonzeros.
Presolve time =    0.05 sec.
Clique table members: 100.
MIP emphasis: balance optimality and feasibility.
MIP search method: dynamic search.
Parallel mode: none, using 1 thread.
Root relaxation solution time =    0.16 sec.

        Nodes                                         Cuts/
   Node  Left     Objective  IInf  Best Integer     Best Node    ItCnt     Gap

*     0+    0                         1473.0000       44.9896      497   96.95%
*     0+    0                          101.0000       44.9896      497   55.46%
      0     0       45.4547    84      101.0000      Fract: 3      530   55.00%
*     0+    0                           98.0000       45.4547      530   53.62%
      0     0       51.3547    82       98.0000      Cuts: 41      860   47.60%
*     0+    0                           92.0000       51.3547      860   44.18%
      0     0       51.7015    75       92.0000       Cuts: 6      922   43.80%
*     0+    0                           88.0000       51.7015      922   41.25%
      0     0       51.7080    80       88.0000       Cuts: 4      940   41.24%
*     0+    0                           75.0000       51.7080      940   31.06%
      0     0       52.2185    69       75.0000   Impl Bds: 1      971   30.38%
*     0+    0                           69.0000       52.2185      971   24.32%
      0     0       52.7348    63       69.0000       Cuts: 3      996   23.57%
*     0+    0                           68.0000       52.7348      996   22.45%
      0     0       52.7438    66       68.0000    MIRcuts: 2     1011   22.44%
*     0+    0                           64.0000       52.7438     1011   17.59%
      0     0       53.4875    58       64.0000       Cuts: 3     1027   16.43%
*     0+    0                           62.0000       53.4875     1027   13.73%
      0     0       53.4876    57       62.0000    MIRcuts: 1     1033   13.73%
*     0+    0                           61.0000       53.4876     1033   12.32%
      0     0       54.4924    55       61.0000    MIRcuts: 5     1094   10.67%
      0     0       54.7048    56       61.0000      Cuts: 10     1157   10.32%
      0     0       54.7687    64       61.0000       Cuts: 2     1189   10.22%
      0     0       54.8707    57       61.0000       Cuts: 3     1223   10.05%
      0     0       54.8707    60       61.0000       54.8707     1233   10.05%
*     0+    0                           60.0000       54.8707     1233    8.55%
*     0+    0                           59.0000       54.8707     1233    7.00%

Repeating presolve.
Tried aggregator 1 time.
MIP Presolve eliminated 24 rows and 2827 columns.
MIP Presolve modified 765 coefficients.
Reduced MIP has 126 rows, 2174 columns, and 4372 nonzeros.
Tried aggregator 1 time.
Represolve time =    0.12 sec.
Clique table members: 277.
MIP emphasis: balance optimality and feasibility.
MIP search method: dynamic search.
Parallel mode: none, using 1 thread.
Root relaxation solution time =    0.05 sec.

        Nodes                                         Cuts/
   Node  Left     Objective  IInf  Best Integer     Best Node    ItCnt     Gap

      0     0       56.2905    67       59.0000       56.2905      468    4.59%
      0     2       56.2905    67       59.0000       56.2905      468    4.59%
    100    91       58.0000    11       59.0000       57.0000     1782    3.39%
    200   169        cutoff             59.0000       57.0000     3483    3.39%
*   288    62      integral     0       58.0000       57.0000     5171    1.72%
    300    50    infeasible             58.0000       57.0000     7032    1.72%

Cover cuts applied:  34
Mixed integer rounding cuts applied:  22
Gomory fractional cuts applied:  1

Solution pool: 14 solutions saved.

MIP - Integer optimal solution:  Objective = 5.8000000000e+001
Solution time =    4.39 sec.  Iterations = 15661  Nodes = 351


Incumbent solution
Variable Name           Solution Value
Cmax                         58.000000
X_1_49                        1.000000
X_2_50                        1.000000
X_3_1                         1.000000
X_4_16                        1.000000
X_5_33                        1.000000
X_6_45                        1.000000
X_7_50                        1.000000
X_8_50                        1.000000
X_9_30                        1.000000
X_10_24                       1.000000
X_11_45                       1.000000
X_12_14                       1.000000
X_13_33                       1.000000
X_14_16                       1.000000
X_15_39                       1.000000
X_16_16                       1.000000
X_17_1                        1.000000
X_18_19                       1.000000
X_19_39                       1.000000
X_20_45                       1.000000
X_21_16                       1.000000
X_22_45                       1.000000
X_23_6                        1.000000
X_24_6                        1.000000
X_25_45                       1.000000
X_26_14                       1.000000
X_27_50                       1.000000
X_28_45                       1.000000
X_29_29                       1.000000
X_30_19                       1.000000
X_31_11                       1.000000
X_32_45                       1.000000
X_33_31                       1.000000
X_34_16                       1.000000
X_35_1                        1.000000
X_36_45                       1.000000
X_37_21                       1.000000
X_38_1                        1.000000
X_39_35                       1.000000
X_40_18                       1.000000
X_41_50                       1.000000
X_42_16                       1.000000
X_43_16                       1.000000
X_44_50                       1.000000
X_45_8                        1.000000
X_46_2                        1.000000
X_47_50                       1.000000
X_48_16                       1.000000
X_49_6                        1.000000
X_50_50                       1.000000
X_51_45                       1.000000
X_52_8                        1.000000
X_53_39                       1.000000
X_54_45                       1.000000
X_55_45                       1.000000
X_56_39                       1.000000
X_57_1                        1.000000
X_58_19                       1.000000
X_59_13                       1.000000
X_60_16                       1.000000
X_61_43                       1.000000
X_62_50                       1.000000
X_63_45                       1.000000
X_64_1                        1.000000
X_65_35                       1.000000
X_66_19                       1.000000
X_67_1                        1.000000
X_68_39                       1.000000
X_69_50                       1.000000
X_70_19                       1.000000
X_71_11                       1.000000
X_72_33                       1.000000
X_73_39                       1.000000
X_74_20                       1.000000
X_75_45                       1.000000
X_76_28                       1.000000
X_77_39                       1.000000
X_78_21                       1.000000
X_79_42                       1.000000
X_80_16                       1.000000
X_81_33                       1.000000
X_82_18                       1.000000
X_83_1                        1.000000
X_84_1                        1.000000
X_85_27                       1.000000
X_86_31                       1.000000
X_87_11                       1.000000
X_88_39                       1.000000
X_89_43                       1.000000
X_90_33                       1.000000
X_91_1                        1.000000
X_92_1                        1.000000
X_93_39                       1.000000
X_94_1                        1.000000
X_95_21                       1.000000
X_96_45                       1.000000
X_97_11                       1.000000
X_98_21                       1.000000
X_99_45                       1.000000
X_100_16                      1.000000
All other variables in the range 1-5001 are 0.
